% seed = 5925040

mint = 45;
% maxt = 100;

nActs = 22;
dur = [0,3,5,1,9,9,1,6,9,6,4,5,1,1,6,1,10,6,7,9,1,0];

nSkills = 4;
sreq = [| 0,0,0,0,
	| 3,0,2,0,
	| 2,2,2,2,
	| 1,1,1,0,
	| 1,3,1,1,
	| 3,3,2,1,
	| 1,0,2,2,
	| 1,2,3,2,
	| 2,0,2,2,
	| 2,2,3,0,
	| 1,1,1,2,
	| 2,3,2,2,
	| 0,2,2,2,
	| 3,0,0,1,
	| 3,1,2,1,
	| 0,0,2,2,
	| 2,3,2,1,
	| 0,0,3,2,
	| 3,1,0,1,
	| 0,1,3,2,
	| 2,0,1,1,
	| 0,0,0,0, |];

nResources = 10;
mastery = [| false,true,false,false,
	| false,true,false,false,
	| false,true,false,false,
	| false,true,true,false,
	| false,false,true,false,
	| true,false,true,false,
	| true,true,false,false,
	| false,false,false,true,
	| false,true,false,false,
	| true,true,false,true, |];

nPrecs = 31;
pred = [1,1,1,2,3,3,3,4,5,5,5,6,7,8,8,8,9,10,11,11,12,13,13,14,15,16,17,18,19,20,21];
succ = [2,3,4,6,17,13,5,12,19,7,8,16,20,9,10,11,14,16,18,15,14,19,21,18,20,17,21,20,22,22,22];

nUnrels = 119;
unpred = [2,2,2,2,2,2,2,2,2,2,2,2,2,2,2,3,3,3,4,4,4,4,4,4,4,4,4,4,4,4,4,5,5,5,6,6,6,6,6,6,6,6,6,6,6,6,7,7,7,7,7,7,7,7,7,7,7,7,7,8,8,8,9,9,9,9,9,9,9,9,9,10,10,10,10,10,10,10,10,11,11,11,11,11,11,11,12,12,12,12,12,12,13,13,13,13,13,13,14,14,14,14,14,15,15,15,15,15,16,16,16,17,17,17,18,18,19,19,20];
unsucc = [3,4,5,7,8,9,10,11,12,13,14,15,18,19,20,4,6,12,5,6,7,8,9,10,11,13,15,16,17,19,21,6,12,13,7,8,9,10,11,12,13,14,15,18,19,20,8,9,10,11,12,13,14,15,16,17,18,19,21,12,13,19,10,11,12,13,15,16,17,19,21,11,12,13,14,15,18,19,20,12,13,14,16,17,19,21,13,15,16,17,19,21,14,15,16,17,18,20,15,16,17,19,21,16,17,18,19,21,18,19,20,18,19,20,19,21,20,21,21];

USEFUL_RES = [{},
	{4,5,6,7,10},
	{1,2,3,4,5,6,7,8,9,10},
	{1,2,3,4,5,6,7,9,10},
	{1,2,3,4,5,6,7,8,9,10},
	{1,2,3,4,5,6,7,8,9,10},
	{4,5,6,7,8,10},
	{1,2,3,4,5,6,7,8,9,10},
	{4,5,6,7,8,10},
	{1,2,3,4,5,6,7,9,10},
	{1,2,3,4,5,6,7,8,9,10},
	{1,2,3,4,5,6,7,8,9,10},
	{1,2,3,4,5,6,7,8,9,10},
	{6,7,8,10},
	{1,2,3,4,5,6,7,8,9,10},
	{4,5,6,8,10},
	{1,2,3,4,5,6,7,8,9,10},
	{4,5,6,8,10},
	{1,2,3,4,6,7,8,9,10},
	{1,2,3,4,5,6,7,8,9,10},
	{4,5,6,7,8,10},
	{}];

POTENTIAL_ACT = [{3,4,5,6,8,10,11,12,13,15,17,19,20},
	{3,4,5,6,8,10,11,12,13,15,17,19,20},
	{3,4,5,6,8,10,11,12,13,15,17,19,20},
	{2,3,4,5,6,7,8,9,10,11,12,13,15,16,17,18,19,20,21},
	{2,3,4,5,6,7,8,9,10,11,12,13,15,16,17,18,20,21},
	{2,3,4,5,6,7,8,9,10,11,12,13,14,15,16,17,18,19,20,21},
	{2,3,4,5,6,7,8,9,10,11,12,13,14,15,17,19,20,21},
	{3,5,6,7,8,9,11,12,13,14,15,16,17,18,19,20,21},
	{3,4,5,6,8,10,11,12,13,15,17,19,20},
	{2,3,4,5,6,7,8,9,10,11,12,13,14,15,16,17,18,19,20,21}];
